% Generated by MiniZinc 2.9.3
% Solver library: /home/icwmmarijnisse/MiniZincIDE-2.9.3-bundle-linux-x86_64/share/minizinc/linear
% Command line invocation: minizinc --compile --fzn ./instance.fzn --ozn ./instance.ozn --solver linear-solver ../../../../benchmarks/models/linear/instances/rcpsp.mzn ../../../../benchmarks/models/linear/instances/j304_3.dzn 

array [1..2] of int: X_INTRODUCED_34_ = [1,-1];
array [1..5] of int: X_INTRODUCED_85_ = [2,4,10,3,10];
array [1..5] of int: X_INTRODUCED_139_ = [2,2,10,3,10];
array [1..5] of int: X_INTRODUCED_166_ = [2,2,4,3,10];
array [1..5] of int: X_INTRODUCED_193_ = [2,2,4,10,10];
array [1..5] of int: X_INTRODUCED_220_ = [2,2,4,10,3];
array [1..2] of int: X_INTRODUCED_236_ = [4,5];
array [1..2] of int: X_INTRODUCED_249_ = [9,5];
array [1..2] of int: X_INTRODUCED_261_ = [9,4];
array [1..3] of int: X_INTRODUCED_275_ = [1,-1,976];
array [1..2] of int: X_INTRODUCED_286_ = [-1,-1];
array [1..3] of int: X_INTRODUCED_295_ = [1,-1,901];
array [1..3] of int: X_INTRODUCED_304_ = [1,-1,883];
array [1..3] of int: X_INTRODUCED_314_ = [1,-1,876];
array [1..3] of int: X_INTRODUCED_318_ = [-1,1,-877];
array [1..3] of int: X_INTRODUCED_327_ = [1,-1,870];
array [1..3] of int: X_INTRODUCED_330_ = [-1,1,-883];
array [1..3] of int: X_INTRODUCED_336_ = [1,1,-1];
array [1..3] of int: X_INTRODUCED_352_ = [1,-1,827];
array [1..3] of int: X_INTRODUCED_356_ = [-1,1,-926];
array [1..3] of int: X_INTRODUCED_376_ = [1,-1,852];
array [1..3] of int: X_INTRODUCED_379_ = [-1,1,-901];
array [1..3] of int: X_INTRODUCED_400_ = [1,-1,871];
array [1..3] of int: X_INTRODUCED_404_ = [-1,1,-882];
array [1..3] of int: X_INTRODUCED_440_ = [1,-1,867];
array [1..3] of int: X_INTRODUCED_444_ = [-1,1,-886];
array [1..3] of int: X_INTRODUCED_880_ = [1,-1,777];
array [1..3] of int: X_INTRODUCED_883_ = [-1,1,-976];
array [1..3] of int: X_INTRODUCED_904_ = [1,-1,652];
array [1..3] of int: X_INTRODUCED_908_ = [-1,1,-1101];
var 0..876: X_INTRODUCED_16_;
var 0..876: X_INTRODUCED_17_;
var 0..876: X_INTRODUCED_18_;
var 0..876: X_INTRODUCED_19_;
var 0..876: X_INTRODUCED_20_;
var 0..876: X_INTRODUCED_21_;
var 0..876: X_INTRODUCED_22_;
var 0..876: X_INTRODUCED_23_;
var 0..876: X_INTRODUCED_24_;
var 0..876: X_INTRODUCED_25_;
var 0..876: X_INTRODUCED_26_;
var 0..876: X_INTRODUCED_27_;
var 0..876: X_INTRODUCED_28_;
var 0..876: X_INTRODUCED_29_;
var 0..876: X_INTRODUCED_30_;
var 0..877: Objective:: output_var;
var 0..1: X_INTRODUCED_57_ ::var_is_introduced ;
var 0..1: X_INTRODUCED_63_ ::var_is_introduced ;
var 0..1: X_INTRODUCED_69_ ::var_is_introduced ;
var 0..1: X_INTRODUCED_76_ ::var_is_introduced ;
var 0..1: X_INTRODUCED_82_ ::var_is_introduced ;
var 0..1: X_INTRODUCED_90_ ::var_is_introduced ;
var 0..1: X_INTRODUCED_95_ ::var_is_introduced ;
var 0..1: X_INTRODUCED_100_ ::var_is_introduced ;
var 0..1: X_INTRODUCED_105_ ::var_is_introduced ;
var 0..1: X_INTRODUCED_110_ ::var_is_introduced ;
var 0..1: X_INTRODUCED_116_ ::var_is_introduced ;
var 0..1: X_INTRODUCED_121_ ::var_is_introduced ;
var 0..1: X_INTRODUCED_126_ ::var_is_introduced ;
var 0..1: X_INTRODUCED_131_ ::var_is_introduced ;
var 0..1: X_INTRODUCED_136_ ::var_is_introduced ;
var 0..1: X_INTRODUCED_143_ ::var_is_introduced ;
var 0..1: X_INTRODUCED_148_ ::var_is_introduced ;
var 0..1: X_INTRODUCED_153_ ::var_is_introduced ;
var 0..1: X_INTRODUCED_158_ ::var_is_introduced ;
var 0..1: X_INTRODUCED_163_ ::var_is_introduced ;
var 0..1: X_INTRODUCED_170_ ::var_is_introduced ;
var 0..1: X_INTRODUCED_175_ ::var_is_introduced ;
var 0..1: X_INTRODUCED_180_ ::var_is_introduced ;
var 0..1: X_INTRODUCED_185_ ::var_is_introduced ;
var 0..1: X_INTRODUCED_190_ ::var_is_introduced ;
var 0..1: X_INTRODUCED_197_ ::var_is_introduced ;
var 0..1: X_INTRODUCED_202_ ::var_is_introduced ;
var 0..1: X_INTRODUCED_207_ ::var_is_introduced ;
var 0..1: X_INTRODUCED_212_ ::var_is_introduced ;
var 0..1: X_INTRODUCED_217_ ::var_is_introduced ;
var 0..1: X_INTRODUCED_227_ ::var_is_introduced ;
var 0..1: X_INTRODUCED_232_ ::var_is_introduced ;
var 0..1: X_INTRODUCED_240_ ::var_is_introduced ;
var 0..1: X_INTRODUCED_246_ ::var_is_introduced ;
var 0..1: X_INTRODUCED_253_ ::var_is_introduced ;
var 0..1: X_INTRODUCED_258_ ::var_is_introduced ;
var 0..1: X_INTRODUCED_265_ ::var_is_introduced ;
var 0..1: X_INTRODUCED_276_ ::var_is_introduced ;
var 0..1: X_INTRODUCED_287_ ::var_is_introduced ;
var 0..1: X_INTRODUCED_296_ ::var_is_introduced ;
var 0..1: X_INTRODUCED_310_ ::var_is_introduced ;
var 0..1: X_INTRODUCED_322_ ::var_is_introduced ;
var 0..1: X_INTRODUCED_339_ ::var_is_introduced ;
var 0..1: X_INTRODUCED_347_ ::var_is_introduced ;
var 0..1: X_INTRODUCED_364_ ::var_is_introduced ;
var 0..1: X_INTRODUCED_371_ ::var_is_introduced ;
var 0..1: X_INTRODUCED_387_ ::var_is_introduced ;
var 0..1: X_INTRODUCED_395_ ::var_is_introduced ;
var 0..1: X_INTRODUCED_412_ ::var_is_introduced ;
var 0..1: X_INTRODUCED_419_ ::var_is_introduced ;
var 0..1: X_INTRODUCED_430_ ::var_is_introduced ;
var 0..1: X_INTRODUCED_435_ ::var_is_introduced ;
var 0..1: X_INTRODUCED_452_ ::var_is_introduced ;
var 0..1: X_INTRODUCED_459_ ::var_is_introduced ;
var 0..1: X_INTRODUCED_472_ ::var_is_introduced ;
var 0..1: X_INTRODUCED_479_ ::var_is_introduced ;
var 0..1: X_INTRODUCED_492_ ::var_is_introduced ;
var 0..1: X_INTRODUCED_499_ ::var_is_introduced ;
var 0..1: X_INTRODUCED_512_ ::var_is_introduced ;
var 0..1: X_INTRODUCED_519_ ::var_is_introduced ;
var 0..1: X_INTRODUCED_530_ ::var_is_introduced ;
var 0..1: X_INTRODUCED_535_ ::var_is_introduced ;
var 0..1: X_INTRODUCED_546_ ::var_is_introduced ;
var 0..1: X_INTRODUCED_551_ ::var_is_introduced ;
var 0..1: X_INTRODUCED_564_ ::var_is_introduced ;
var 0..1: X_INTRODUCED_571_ ::var_is_introduced ;
var 0..1: X_INTRODUCED_584_ ::var_is_introduced ;
var 0..1: X_INTRODUCED_591_ ::var_is_introduced ;
var 0..1: X_INTRODUCED_604_ ::var_is_introduced ;
var 0..1: X_INTRODUCED_611_ ::var_is_introduced ;
var 0..1: X_INTRODUCED_622_ ::var_is_introduced ;
var 0..1: X_INTRODUCED_627_ ::var_is_introduced ;
var 0..1: X_INTRODUCED_638_ ::var_is_introduced ;
var 0..1: X_INTRODUCED_643_ ::var_is_introduced ;
var 0..1: X_INTRODUCED_654_ ::var_is_introduced ;
var 0..1: X_INTRODUCED_659_ ::var_is_introduced ;
var 0..1: X_INTRODUCED_672_ ::var_is_introduced ;
var 0..1: X_INTRODUCED_679_ ::var_is_introduced ;
var 0..1: X_INTRODUCED_690_ ::var_is_introduced ;
var 0..1: X_INTRODUCED_695_ ::var_is_introduced ;
var 0..1: X_INTRODUCED_706_ ::var_is_introduced ;
var 0..1: X_INTRODUCED_711_ ::var_is_introduced ;
var 0..1: X_INTRODUCED_722_ ::var_is_introduced ;
var 0..1: X_INTRODUCED_727_ ::var_is_introduced ;
var 0..1: X_INTRODUCED_738_ ::var_is_introduced ;
var 0..1: X_INTRODUCED_743_ ::var_is_introduced ;
var 0..1: X_INTRODUCED_754_ ::var_is_introduced ;
var 0..1: X_INTRODUCED_759_ ::var_is_introduced ;
var 0..1: X_INTRODUCED_772_ ::var_is_introduced ;
var 0..1: X_INTRODUCED_779_ ::var_is_introduced ;
var 0..1: X_INTRODUCED_790_ ::var_is_introduced ;
var 0..1: X_INTRODUCED_795_ ::var_is_introduced ;
var 0..1: X_INTRODUCED_806_ ::var_is_introduced ;
var 0..1: X_INTRODUCED_811_ ::var_is_introduced ;
var 0..1: X_INTRODUCED_822_ ::var_is_introduced ;
var 0..1: X_INTRODUCED_827_ ::var_is_introduced ;
var 0..1: X_INTRODUCED_838_ ::var_is_introduced ;
var 0..1: X_INTRODUCED_843_ ::var_is_introduced ;
var 0..1: X_INTRODUCED_854_ ::var_is_introduced ;
var 0..1: X_INTRODUCED_859_ ::var_is_introduced ;
var 0..1: X_INTRODUCED_870_ ::var_is_introduced ;
var 0..1: X_INTRODUCED_875_ ::var_is_introduced ;
var 0..1: X_INTRODUCED_891_ ::var_is_introduced ;
var 0..1: X_INTRODUCED_899_ ::var_is_introduced ;
var 0..1: X_INTRODUCED_914_ ::var_is_introduced ;
var 0..1: X_INTRODUCED_919_ ::var_is_introduced ;
var 0..1: X_INTRODUCED_932_ ::var_is_introduced ;
var 0..1: X_INTRODUCED_939_ ::var_is_introduced ;
var 0..1: X_INTRODUCED_950_ ::var_is_introduced ;
var 0..1: X_INTRODUCED_955_ ::var_is_introduced ;
var 0..1: X_INTRODUCED_966_ ::var_is_introduced ;
var 0..1: X_INTRODUCED_971_ ::var_is_introduced ;
array [1..15] of var int: Start:: output_array([1..15]) = [X_INTRODUCED_16_,X_INTRODUCED_17_,X_INTRODUCED_18_,X_INTRODUCED_19_,X_INTRODUCED_20_,X_INTRODUCED_21_,X_INTRODUCED_22_,X_INTRODUCED_23_,X_INTRODUCED_24_,X_INTRODUCED_25_,X_INTRODUCED_26_,X_INTRODUCED_27_,X_INTRODUCED_28_,X_INTRODUCED_29_,X_INTRODUCED_30_];
array [1..16] of var int: X_INTRODUCED_264_ ::var_is_introduced  = [X_INTRODUCED_16_,X_INTRODUCED_17_,X_INTRODUCED_18_,X_INTRODUCED_19_,X_INTRODUCED_20_,X_INTRODUCED_21_,X_INTRODUCED_22_,X_INTRODUCED_23_,X_INTRODUCED_24_,X_INTRODUCED_25_,X_INTRODUCED_26_,X_INTRODUCED_27_,X_INTRODUCED_28_,X_INTRODUCED_29_,X_INTRODUCED_30_,Objective];
constraint int_lin_le(X_INTRODUCED_34_,[X_INTRODUCED_16_,X_INTRODUCED_19_],-6);
constraint int_lin_le(X_INTRODUCED_34_,[X_INTRODUCED_16_,X_INTRODUCED_21_],-6);
constraint int_lin_le(X_INTRODUCED_34_,[X_INTRODUCED_16_,X_INTRODUCED_24_],-6);
constraint int_lin_le(X_INTRODUCED_34_,[X_INTRODUCED_18_,X_INTRODUCED_22_],-8);
constraint int_lin_le(X_INTRODUCED_34_,[X_INTRODUCED_19_,X_INTRODUCED_20_],-7);
constraint int_lin_le(X_INTRODUCED_34_,[X_INTRODUCED_19_,X_INTRODUCED_23_],-7);
constraint int_lin_le(X_INTRODUCED_34_,[X_INTRODUCED_20_,X_INTRODUCED_29_],-50);
constraint int_lin_le(X_INTRODUCED_34_,[X_INTRODUCED_21_,X_INTRODUCED_25_],-100);
constraint int_lin_le(X_INTRODUCED_34_,[X_INTRODUCED_23_,X_INTRODUCED_26_],-100);
constraint int_lin_le(X_INTRODUCED_34_,[X_INTRODUCED_24_,X_INTRODUCED_27_],-175);
constraint int_lin_le(X_INTRODUCED_34_,[X_INTRODUCED_25_,X_INTRODUCED_28_],-225);
constraint int_lin_le(X_INTRODUCED_34_,[X_INTRODUCED_29_,X_INTRODUCED_30_],-6);
constraint int_lin_le(X_INTRODUCED_85_,[X_INTRODUCED_57_,X_INTRODUCED_63_,X_INTRODUCED_69_,X_INTRODUCED_76_,X_INTRODUCED_82_],12);
constraint int_lin_le(X_INTRODUCED_85_,[X_INTRODUCED_90_,X_INTRODUCED_95_,X_INTRODUCED_100_,X_INTRODUCED_105_,X_INTRODUCED_110_],12);
constraint int_lin_le(X_INTRODUCED_139_,[X_INTRODUCED_116_,X_INTRODUCED_121_,X_INTRODUCED_126_,X_INTRODUCED_131_,X_INTRODUCED_136_],10);
constraint int_lin_le(X_INTRODUCED_166_,[X_INTRODUCED_143_,X_INTRODUCED_148_,X_INTRODUCED_153_,X_INTRODUCED_158_,X_INTRODUCED_163_],4);
constraint int_lin_le(X_INTRODUCED_193_,[X_INTRODUCED_170_,X_INTRODUCED_175_,X_INTRODUCED_180_,X_INTRODUCED_185_,X_INTRODUCED_190_],11);
constraint int_lin_le(X_INTRODUCED_220_,[X_INTRODUCED_197_,X_INTRODUCED_202_,X_INTRODUCED_207_,X_INTRODUCED_212_,X_INTRODUCED_217_],4);
constraint int_lin_le(X_INTRODUCED_236_,[X_INTRODUCED_227_,X_INTRODUCED_232_],0);
constraint int_lin_le(X_INTRODUCED_249_,[X_INTRODUCED_240_,X_INTRODUCED_246_],5);
constraint int_lin_le(X_INTRODUCED_261_,[X_INTRODUCED_253_,X_INTRODUCED_258_],4);
constraint int_lin_le(X_INTRODUCED_34_,[X_INTRODUCED_17_,Objective],-10);
constraint int_lin_le(X_INTRODUCED_34_,[X_INTRODUCED_22_,Objective],-25);
constraint int_lin_le(X_INTRODUCED_34_,[X_INTRODUCED_26_,Objective],-150);
constraint int_lin_le(X_INTRODUCED_34_,[X_INTRODUCED_27_,Objective],-2);
constraint int_lin_le(X_INTRODUCED_34_,[X_INTRODUCED_28_,Objective],-6);
constraint int_lin_le(X_INTRODUCED_34_,[X_INTRODUCED_30_,Objective],-7);
constraint int_lin_le(X_INTRODUCED_275_,[X_INTRODUCED_21_,X_INTRODUCED_23_,X_INTRODUCED_265_],876);
constraint int_lin_le(X_INTRODUCED_275_,[X_INTRODUCED_23_,X_INTRODUCED_21_,X_INTRODUCED_276_],876);
constraint int_lin_le(X_INTRODUCED_286_,[X_INTRODUCED_265_,X_INTRODUCED_276_],-1);
constraint int_lin_le(X_INTRODUCED_295_,[X_INTRODUCED_22_,X_INTRODUCED_30_,X_INTRODUCED_287_],876);
constraint int_lin_le(X_INTRODUCED_304_,[X_INTRODUCED_30_,X_INTRODUCED_22_,X_INTRODUCED_296_],876);
constraint int_lin_le(X_INTRODUCED_286_,[X_INTRODUCED_287_,X_INTRODUCED_296_],-1);
constraint int_lin_le(X_INTRODUCED_314_,[X_INTRODUCED_19_,X_INTRODUCED_17_,X_INTRODUCED_310_],876);
constraint int_lin_le(X_INTRODUCED_318_,[X_INTRODUCED_19_,X_INTRODUCED_17_,X_INTRODUCED_310_],-1);
constraint int_lin_le(X_INTRODUCED_327_,[X_INTRODUCED_17_,X_INTRODUCED_19_,X_INTRODUCED_322_],876);
constraint int_lin_le(X_INTRODUCED_330_,[X_INTRODUCED_17_,X_INTRODUCED_19_,X_INTRODUCED_322_],-7);
constraint int_lin_le(X_INTRODUCED_336_,[X_INTRODUCED_310_,X_INTRODUCED_322_,X_INTRODUCED_57_],1);
constraint int_lin_le(X_INTRODUCED_34_,[X_INTRODUCED_57_,X_INTRODUCED_310_],0);
constraint int_lin_le(X_INTRODUCED_34_,[X_INTRODUCED_57_,X_INTRODUCED_322_],0);
constraint int_lin_le(X_INTRODUCED_314_,[X_INTRODUCED_20_,X_INTRODUCED_17_,X_INTRODUCED_339_],876);
constraint int_lin_le(X_INTRODUCED_318_,[X_INTRODUCED_20_,X_INTRODUCED_17_,X_INTRODUCED_339_],-1);
constraint int_lin_le(X_INTRODUCED_352_,[X_INTRODUCED_17_,X_INTRODUCED_20_,X_INTRODUCED_347_],876);
constraint int_lin_le(X_INTRODUCED_356_,[X_INTRODUCED_17_,X_INTRODUCED_20_,X_INTRODUCED_347_],-50);
constraint int_lin_le(X_INTRODUCED_336_,[X_INTRODUCED_339_,X_INTRODUCED_347_,X_INTRODUCED_63_],1);
constraint int_lin_le(X_INTRODUCED_34_,[X_INTRODUCED_63_,X_INTRODUCED_339_],0);
constraint int_lin_le(X_INTRODUCED_34_,[X_INTRODUCED_63_,X_INTRODUCED_347_],0);
constraint int_lin_le(X_INTRODUCED_314_,[X_INTRODUCED_22_,X_INTRODUCED_17_,X_INTRODUCED_364_],876);
constraint int_lin_le(X_INTRODUCED_318_,[X_INTRODUCED_22_,X_INTRODUCED_17_,X_INTRODUCED_364_],-1);
constraint int_lin_le(X_INTRODUCED_376_,[X_INTRODUCED_17_,X_INTRODUCED_22_,X_INTRODUCED_371_],876);
constraint int_lin_le(X_INTRODUCED_379_,[X_INTRODUCED_17_,X_INTRODUCED_22_,X_INTRODUCED_371_],-25);
constraint int_lin_le(X_INTRODUCED_336_,[X_INTRODUCED_364_,X_INTRODUCED_371_,X_INTRODUCED_69_],1);
constraint int_lin_le(X_INTRODUCED_34_,[X_INTRODUCED_69_,X_INTRODUCED_364_],0);
constraint int_lin_le(X_INTRODUCED_34_,[X_INTRODUCED_69_,X_INTRODUCED_371_],0);
constraint int_lin_le(X_INTRODUCED_314_,[X_INTRODUCED_28_,X_INTRODUCED_17_,X_INTRODUCED_387_],876);
constraint int_lin_le(X_INTRODUCED_318_,[X_INTRODUCED_28_,X_INTRODUCED_17_,X_INTRODUCED_387_],-1);
constraint int_lin_le(X_INTRODUCED_400_,[X_INTRODUCED_17_,X_INTRODUCED_28_,X_INTRODUCED_395_],876);
constraint int_lin_le(X_INTRODUCED_404_,[X_INTRODUCED_17_,X_INTRODUCED_28_,X_INTRODUCED_395_],-6);
constraint int_lin_le(X_INTRODUCED_336_,[X_INTRODUCED_387_,X_INTRODUCED_395_,X_INTRODUCED_76_],1);
constraint int_lin_le(X_INTRODUCED_34_,[X_INTRODUCED_76_,X_INTRODUCED_387_],0);
constraint int_lin_le(X_INTRODUCED_34_,[X_INTRODUCED_76_,X_INTRODUCED_395_],0);
constraint int_lin_le(X_INTRODUCED_314_,[X_INTRODUCED_30_,X_INTRODUCED_17_,X_INTRODUCED_412_],876);
constraint int_lin_le(X_INTRODUCED_318_,[X_INTRODUCED_30_,X_INTRODUCED_17_,X_INTRODUCED_412_],-1);
constraint int_lin_le(X_INTRODUCED_327_,[X_INTRODUCED_17_,X_INTRODUCED_30_,X_INTRODUCED_419_],876);
constraint int_lin_le(X_INTRODUCED_330_,[X_INTRODUCED_17_,X_INTRODUCED_30_,X_INTRODUCED_419_],-7);
constraint int_lin_le(X_INTRODUCED_336_,[X_INTRODUCED_412_,X_INTRODUCED_419_,X_INTRODUCED_82_],1);
constraint int_lin_le(X_INTRODUCED_34_,[X_INTRODUCED_82_,X_INTRODUCED_412_],0);
constraint int_lin_le(X_INTRODUCED_34_,[X_INTRODUCED_82_,X_INTRODUCED_419_],0);
constraint int_lin_le(X_INTRODUCED_314_,[X_INTRODUCED_17_,X_INTRODUCED_19_,X_INTRODUCED_430_],876);
constraint int_lin_le(X_INTRODUCED_318_,[X_INTRODUCED_17_,X_INTRODUCED_19_,X_INTRODUCED_430_],-1);
constraint int_lin_le(X_INTRODUCED_440_,[X_INTRODUCED_19_,X_INTRODUCED_17_,X_INTRODUCED_435_],876);
constraint int_lin_le(X_INTRODUCED_444_,[X_INTRODUCED_19_,X_INTRODUCED_17_,X_INTRODUCED_435_],-10);
constraint int_lin_le(X_INTRODUCED_336_,[X_INTRODUCED_430_,X_INTRODUCED_435_,X_INTRODUCED_90_],1);
constraint int_lin_le(X_INTRODUCED_34_,[X_INTRODUCED_90_,X_INTRODUCED_430_],0);
constraint int_lin_le(X_INTRODUCED_34_,[X_INTRODUCED_90_,X_INTRODUCED_435_],0);
constraint int_lin_le(X_INTRODUCED_314_,[X_INTRODUCED_20_,X_INTRODUCED_19_,X_INTRODUCED_452_],876);
constraint int_lin_le(X_INTRODUCED_318_,[X_INTRODUCED_20_,X_INTRODUCED_19_,X_INTRODUCED_452_],-1);
constraint int_lin_le(X_INTRODUCED_352_,[X_INTRODUCED_19_,X_INTRODUCED_20_,X_INTRODUCED_459_],876);
constraint int_lin_le(X_INTRODUCED_356_,[X_INTRODUCED_19_,X_INTRODUCED_20_,X_INTRODUCED_459_],-50);
constraint int_lin_le(X_INTRODUCED_336_,[X_INTRODUCED_452_,X_INTRODUCED_459_,X_INTRODUCED_95_],1);
constraint int_lin_le(X_INTRODUCED_34_,[X_INTRODUCED_95_,X_INTRODUCED_452_],0);
constraint int_lin_le(X_INTRODUCED_34_,[X_INTRODUCED_95_,X_INTRODUCED_459_],0);
constraint int_lin_le(X_INTRODUCED_314_,[X_INTRODUCED_22_,X_INTRODUCED_19_,X_INTRODUCED_472_],876);
constraint int_lin_le(X_INTRODUCED_318_,[X_INTRODUCED_22_,X_INTRODUCED_19_,X_INTRODUCED_472_],-1);
constraint int_lin_le(X_INTRODUCED_376_,[X_INTRODUCED_19_,X_INTRODUCED_22_,X_INTRODUCED_479_],876);
constraint int_lin_le(X_INTRODUCED_379_,[X_INTRODUCED_19_,X_INTRODUCED_22_,X_INTRODUCED_479_],-25);
constraint int_lin_le(X_INTRODUCED_336_,[X_INTRODUCED_472_,X_INTRODUCED_479_,X_INTRODUCED_100_],1);
constraint int_lin_le(X_INTRODUCED_34_,[X_INTRODUCED_100_,X_INTRODUCED_472_],0);
constraint int_lin_le(X_INTRODUCED_34_,[X_INTRODUCED_100_,X_INTRODUCED_479_],0);
constraint int_lin_le(X_INTRODUCED_314_,[X_INTRODUCED_28_,X_INTRODUCED_19_,X_INTRODUCED_492_],876);
constraint int_lin_le(X_INTRODUCED_318_,[X_INTRODUCED_28_,X_INTRODUCED_19_,X_INTRODUCED_492_],-1);
constraint int_lin_le(X_INTRODUCED_400_,[X_INTRODUCED_19_,X_INTRODUCED_28_,X_INTRODUCED_499_],876);
constraint int_lin_le(X_INTRODUCED_404_,[X_INTRODUCED_19_,X_INTRODUCED_28_,X_INTRODUCED_499_],-6);
constraint int_lin_le(X_INTRODUCED_336_,[X_INTRODUCED_492_,X_INTRODUCED_499_,X_INTRODUCED_105_],1);
constraint int_lin_le(X_INTRODUCED_34_,[X_INTRODUCED_105_,X_INTRODUCED_492_],0);
constraint int_lin_le(X_INTRODUCED_34_,[X_INTRODUCED_105_,X_INTRODUCED_499_],0);
constraint int_lin_le(X_INTRODUCED_314_,[X_INTRODUCED_30_,X_INTRODUCED_19_,X_INTRODUCED_512_],876);
constraint int_lin_le(X_INTRODUCED_318_,[X_INTRODUCED_30_,X_INTRODUCED_19_,X_INTRODUCED_512_],-1);
constraint int_lin_le(X_INTRODUCED_327_,[X_INTRODUCED_19_,X_INTRODUCED_30_,X_INTRODUCED_519_],876);
constraint int_lin_le(X_INTRODUCED_330_,[X_INTRODUCED_19_,X_INTRODUCED_30_,X_INTRODUCED_519_],-7);
constraint int_lin_le(X_INTRODUCED_336_,[X_INTRODUCED_512_,X_INTRODUCED_519_,X_INTRODUCED_110_],1);
constraint int_lin_le(X_INTRODUCED_34_,[X_INTRODUCED_110_,X_INTRODUCED_512_],0);
constraint int_lin_le(X_INTRODUCED_34_,[X_INTRODUCED_110_,X_INTRODUCED_519_],0);
constraint int_lin_le(X_INTRODUCED_314_,[X_INTRODUCED_17_,X_INTRODUCED_20_,X_INTRODUCED_530_],876);
constraint int_lin_le(X_INTRODUCED_318_,[X_INTRODUCED_17_,X_INTRODUCED_20_,X_INTRODUCED_530_],-1);
constraint int_lin_le(X_INTRODUCED_440_,[X_INTRODUCED_20_,X_INTRODUCED_17_,X_INTRODUCED_535_],876);
constraint int_lin_le(X_INTRODUCED_444_,[X_INTRODUCED_20_,X_INTRODUCED_17_,X_INTRODUCED_535_],-10);
constraint int_lin_le(X_INTRODUCED_336_,[X_INTRODUCED_530_,X_INTRODUCED_535_,X_INTRODUCED_116_],1);
constraint int_lin_le(X_INTRODUCED_34_,[X_INTRODUCED_116_,X_INTRODUCED_530_],0);
constraint int_lin_le(X_INTRODUCED_34_,[X_INTRODUCED_116_,X_INTRODUCED_535_],0);
constraint int_lin_le(X_INTRODUCED_314_,[X_INTRODUCED_19_,X_INTRODUCED_20_,X_INTRODUCED_546_],876);
constraint int_lin_le(X_INTRODUCED_318_,[X_INTRODUCED_19_,X_INTRODUCED_20_,X_INTRODUCED_546_],-1);
constraint int_lin_le(X_INTRODUCED_327_,[X_INTRODUCED_20_,X_INTRODUCED_19_,X_INTRODUCED_551_],876);
constraint int_lin_le(X_INTRODUCED_330_,[X_INTRODUCED_20_,X_INTRODUCED_19_,X_INTRODUCED_551_],-7);
constraint int_lin_le(X_INTRODUCED_336_,[X_INTRODUCED_546_,X_INTRODUCED_551_,X_INTRODUCED_121_],1);
constraint int_lin_le(X_INTRODUCED_34_,[X_INTRODUCED_121_,X_INTRODUCED_546_],0);
constraint int_lin_le(X_INTRODUCED_34_,[X_INTRODUCED_121_,X_INTRODUCED_551_],0);
constraint int_lin_le(X_INTRODUCED_314_,[X_INTRODUCED_22_,X_INTRODUCED_20_,X_INTRODUCED_564_],876);
constraint int_lin_le(X_INTRODUCED_318_,[X_INTRODUCED_22_,X_INTRODUCED_20_,X_INTRODUCED_564_],-1);
constraint int_lin_le(X_INTRODUCED_376_,[X_INTRODUCED_20_,X_INTRODUCED_22_,X_INTRODUCED_571_],876);
constraint int_lin_le(X_INTRODUCED_379_,[X_INTRODUCED_20_,X_INTRODUCED_22_,X_INTRODUCED_571_],-25);
constraint int_lin_le(X_INTRODUCED_336_,[X_INTRODUCED_564_,X_INTRODUCED_571_,X_INTRODUCED_126_],1);
constraint int_lin_le(X_INTRODUCED_34_,[X_INTRODUCED_126_,X_INTRODUCED_564_],0);
constraint int_lin_le(X_INTRODUCED_34_,[X_INTRODUCED_126_,X_INTRODUCED_571_],0);
constraint int_lin_le(X_INTRODUCED_314_,[X_INTRODUCED_28_,X_INTRODUCED_20_,X_INTRODUCED_584_],876);
constraint int_lin_le(X_INTRODUCED_318_,[X_INTRODUCED_28_,X_INTRODUCED_20_,X_INTRODUCED_584_],-1);
constraint int_lin_le(X_INTRODUCED_400_,[X_INTRODUCED_20_,X_INTRODUCED_28_,X_INTRODUCED_591_],876);
constraint int_lin_le(X_INTRODUCED_404_,[X_INTRODUCED_20_,X_INTRODUCED_28_,X_INTRODUCED_591_],-6);
constraint int_lin_le(X_INTRODUCED_336_,[X_INTRODUCED_584_,X_INTRODUCED_591_,X_INTRODUCED_131_],1);
constraint int_lin_le(X_INTRODUCED_34_,[X_INTRODUCED_131_,X_INTRODUCED_584_],0);
constraint int_lin_le(X_INTRODUCED_34_,[X_INTRODUCED_131_,X_INTRODUCED_591_],0);
constraint int_lin_le(X_INTRODUCED_314_,[X_INTRODUCED_30_,X_INTRODUCED_20_,X_INTRODUCED_604_],876);
constraint int_lin_le(X_INTRODUCED_318_,[X_INTRODUCED_30_,X_INTRODUCED_20_,X_INTRODUCED_604_],-1);
constraint int_lin_le(X_INTRODUCED_327_,[X_INTRODUCED_20_,X_INTRODUCED_30_,X_INTRODUCED_611_],876);
constraint int_lin_le(X_INTRODUCED_330_,[X_INTRODUCED_20_,X_INTRODUCED_30_,X_INTRODUCED_611_],-7);
constraint int_lin_le(X_INTRODUCED_336_,[X_INTRODUCED_604_,X_INTRODUCED_611_,X_INTRODUCED_136_],1);
constraint int_lin_le(X_INTRODUCED_34_,[X_INTRODUCED_136_,X_INTRODUCED_604_],0);
constraint int_lin_le(X_INTRODUCED_34_,[X_INTRODUCED_136_,X_INTRODUCED_611_],0);
constraint int_lin_le(X_INTRODUCED_314_,[X_INTRODUCED_17_,X_INTRODUCED_22_,X_INTRODUCED_622_],876);
constraint int_lin_le(X_INTRODUCED_318_,[X_INTRODUCED_17_,X_INTRODUCED_22_,X_INTRODUCED_622_],-1);
constraint int_lin_le(X_INTRODUCED_440_,[X_INTRODUCED_22_,X_INTRODUCED_17_,X_INTRODUCED_627_],876);
constraint int_lin_le(X_INTRODUCED_444_,[X_INTRODUCED_22_,X_INTRODUCED_17_,X_INTRODUCED_627_],-10);
constraint int_lin_le(X_INTRODUCED_336_,[X_INTRODUCED_622_,X_INTRODUCED_627_,X_INTRODUCED_143_],1);
constraint int_lin_le(X_INTRODUCED_34_,[X_INTRODUCED_143_,X_INTRODUCED_622_],0);
constraint int_lin_le(X_INTRODUCED_34_,[X_INTRODUCED_143_,X_INTRODUCED_627_],0);
constraint int_lin_le(X_INTRODUCED_314_,[X_INTRODUCED_19_,X_INTRODUCED_22_,X_INTRODUCED_638_],876);
constraint int_lin_le(X_INTRODUCED_318_,[X_INTRODUCED_19_,X_INTRODUCED_22_,X_INTRODUCED_638_],-1);
constraint int_lin_le(X_INTRODUCED_327_,[X_INTRODUCED_22_,X_INTRODUCED_19_,X_INTRODUCED_643_],876);
constraint int_lin_le(X_INTRODUCED_330_,[X_INTRODUCED_22_,X_INTRODUCED_19_,X_INTRODUCED_643_],-7);
constraint int_lin_le(X_INTRODUCED_336_,[X_INTRODUCED_638_,X_INTRODUCED_643_,X_INTRODUCED_148_],1);
constraint int_lin_le(X_INTRODUCED_34_,[X_INTRODUCED_148_,X_INTRODUCED_638_],0);
constraint int_lin_le(X_INTRODUCED_34_,[X_INTRODUCED_148_,X_INTRODUCED_643_],0);
constraint int_lin_le(X_INTRODUCED_314_,[X_INTRODUCED_20_,X_INTRODUCED_22_,X_INTRODUCED_654_],876);
constraint int_lin_le(X_INTRODUCED_318_,[X_INTRODUCED_20_,X_INTRODUCED_22_,X_INTRODUCED_654_],-1);
constraint int_lin_le(X_INTRODUCED_352_,[X_INTRODUCED_22_,X_INTRODUCED_20_,X_INTRODUCED_659_],876);
constraint int_lin_le(X_INTRODUCED_356_,[X_INTRODUCED_22_,X_INTRODUCED_20_,X_INTRODUCED_659_],-50);
constraint int_lin_le(X_INTRODUCED_336_,[X_INTRODUCED_654_,X_INTRODUCED_659_,X_INTRODUCED_153_],1);
constraint int_lin_le(X_INTRODUCED_34_,[X_INTRODUCED_153_,X_INTRODUCED_654_],0);
constraint int_lin_le(X_INTRODUCED_34_,[X_INTRODUCED_153_,X_INTRODUCED_659_],0);
constraint int_lin_le(X_INTRODUCED_314_,[X_INTRODUCED_28_,X_INTRODUCED_22_,X_INTRODUCED_672_],876);
constraint int_lin_le(X_INTRODUCED_318_,[X_INTRODUCED_28_,X_INTRODUCED_22_,X_INTRODUCED_672_],-1);
constraint int_lin_le(X_INTRODUCED_400_,[X_INTRODUCED_22_,X_INTRODUCED_28_,X_INTRODUCED_679_],876);
constraint int_lin_le(X_INTRODUCED_404_,[X_INTRODUCED_22_,X_INTRODUCED_28_,X_INTRODUCED_679_],-6);
constraint int_lin_le(X_INTRODUCED_336_,[X_INTRODUCED_672_,X_INTRODUCED_679_,X_INTRODUCED_158_],1);
constraint int_lin_le(X_INTRODUCED_34_,[X_INTRODUCED_158_,X_INTRODUCED_672_],0);
constraint int_lin_le(X_INTRODUCED_34_,[X_INTRODUCED_158_,X_INTRODUCED_679_],0);
constraint int_lin_le(X_INTRODUCED_314_,[X_INTRODUCED_30_,X_INTRODUCED_22_,X_INTRODUCED_690_],876);
constraint int_lin_le(X_INTRODUCED_318_,[X_INTRODUCED_30_,X_INTRODUCED_22_,X_INTRODUCED_690_],-1);
constraint int_lin_le(X_INTRODUCED_327_,[X_INTRODUCED_22_,X_INTRODUCED_30_,X_INTRODUCED_695_],876);
constraint int_lin_le(X_INTRODUCED_330_,[X_INTRODUCED_22_,X_INTRODUCED_30_,X_INTRODUCED_695_],-7);
constraint int_lin_le(X_INTRODUCED_336_,[X_INTRODUCED_690_,X_INTRODUCED_695_,X_INTRODUCED_163_],1);
constraint int_lin_le(X_INTRODUCED_34_,[X_INTRODUCED_163_,X_INTRODUCED_690_],0);
constraint int_lin_le(X_INTRODUCED_34_,[X_INTRODUCED_163_,X_INTRODUCED_695_],0);
constraint int_lin_le(X_INTRODUCED_314_,[X_INTRODUCED_17_,X_INTRODUCED_28_,X_INTRODUCED_706_],876);
constraint int_lin_le(X_INTRODUCED_318_,[X_INTRODUCED_17_,X_INTRODUCED_28_,X_INTRODUCED_706_],-1);
constraint int_lin_le(X_INTRODUCED_440_,[X_INTRODUCED_28_,X_INTRODUCED_17_,X_INTRODUCED_711_],876);
constraint int_lin_le(X_INTRODUCED_444_,[X_INTRODUCED_28_,X_INTRODUCED_17_,X_INTRODUCED_711_],-10);
constraint int_lin_le(X_INTRODUCED_336_,[X_INTRODUCED_706_,X_INTRODUCED_711_,X_INTRODUCED_170_],1);
constraint int_lin_le(X_INTRODUCED_34_,[X_INTRODUCED_170_,X_INTRODUCED_706_],0);
constraint int_lin_le(X_INTRODUCED_34_,[X_INTRODUCED_170_,X_INTRODUCED_711_],0);
constraint int_lin_le(X_INTRODUCED_314_,[X_INTRODUCED_19_,X_INTRODUCED_28_,X_INTRODUCED_722_],876);
constraint int_lin_le(X_INTRODUCED_318_,[X_INTRODUCED_19_,X_INTRODUCED_28_,X_INTRODUCED_722_],-1);
constraint int_lin_le(X_INTRODUCED_327_,[X_INTRODUCED_28_,X_INTRODUCED_19_,X_INTRODUCED_727_],876);
constraint int_lin_le(X_INTRODUCED_330_,[X_INTRODUCED_28_,X_INTRODUCED_19_,X_INTRODUCED_727_],-7);
constraint int_lin_le(X_INTRODUCED_336_,[X_INTRODUCED_722_,X_INTRODUCED_727_,X_INTRODUCED_175_],1);
constraint int_lin_le(X_INTRODUCED_34_,[X_INTRODUCED_175_,X_INTRODUCED_722_],0);
constraint int_lin_le(X_INTRODUCED_34_,[X_INTRODUCED_175_,X_INTRODUCED_727_],0);
constraint int_lin_le(X_INTRODUCED_314_,[X_INTRODUCED_20_,X_INTRODUCED_28_,X_INTRODUCED_738_],876);
constraint int_lin_le(X_INTRODUCED_318_,[X_INTRODUCED_20_,X_INTRODUCED_28_,X_INTRODUCED_738_],-1);
constraint int_lin_le(X_INTRODUCED_352_,[X_INTRODUCED_28_,X_INTRODUCED_20_,X_INTRODUCED_743_],876);
constraint int_lin_le(X_INTRODUCED_356_,[X_INTRODUCED_28_,X_INTRODUCED_20_,X_INTRODUCED_743_],-50);
constraint int_lin_le(X_INTRODUCED_336_,[X_INTRODUCED_738_,X_INTRODUCED_743_,X_INTRODUCED_180_],1);
constraint int_lin_le(X_INTRODUCED_34_,[X_INTRODUCED_180_,X_INTRODUCED_738_],0);
constraint int_lin_le(X_INTRODUCED_34_,[X_INTRODUCED_180_,X_INTRODUCED_743_],0);
constraint int_lin_le(X_INTRODUCED_314_,[X_INTRODUCED_22_,X_INTRODUCED_28_,X_INTRODUCED_754_],876);
constraint int_lin_le(X_INTRODUCED_318_,[X_INTRODUCED_22_,X_INTRODUCED_28_,X_INTRODUCED_754_],-1);
constraint int_lin_le(X_INTRODUCED_376_,[X_INTRODUCED_28_,X_INTRODUCED_22_,X_INTRODUCED_759_],876);
constraint int_lin_le(X_INTRODUCED_379_,[X_INTRODUCED_28_,X_INTRODUCED_22_,X_INTRODUCED_759_],-25);
constraint int_lin_le(X_INTRODUCED_336_,[X_INTRODUCED_754_,X_INTRODUCED_759_,X_INTRODUCED_185_],1);
constraint int_lin_le(X_INTRODUCED_34_,[X_INTRODUCED_185_,X_INTRODUCED_754_],0);
constraint int_lin_le(X_INTRODUCED_34_,[X_INTRODUCED_185_,X_INTRODUCED_759_],0);
constraint int_lin_le(X_INTRODUCED_314_,[X_INTRODUCED_30_,X_INTRODUCED_28_,X_INTRODUCED_772_],876);
constraint int_lin_le(X_INTRODUCED_318_,[X_INTRODUCED_30_,X_INTRODUCED_28_,X_INTRODUCED_772_],-1);
constraint int_lin_le(X_INTRODUCED_327_,[X_INTRODUCED_28_,X_INTRODUCED_30_,X_INTRODUCED_779_],876);
constraint int_lin_le(X_INTRODUCED_330_,[X_INTRODUCED_28_,X_INTRODUCED_30_,X_INTRODUCED_779_],-7);
constraint int_lin_le(X_INTRODUCED_336_,[X_INTRODUCED_772_,X_INTRODUCED_779_,X_INTRODUCED_190_],1);
constraint int_lin_le(X_INTRODUCED_34_,[X_INTRODUCED_190_,X_INTRODUCED_772_],0);
constraint int_lin_le(X_INTRODUCED_34_,[X_INTRODUCED_190_,X_INTRODUCED_779_],0);
constraint int_lin_le(X_INTRODUCED_314_,[X_INTRODUCED_17_,X_INTRODUCED_30_,X_INTRODUCED_790_],876);
constraint int_lin_le(X_INTRODUCED_318_,[X_INTRODUCED_17_,X_INTRODUCED_30_,X_INTRODUCED_790_],-1);
constraint int_lin_le(X_INTRODUCED_440_,[X_INTRODUCED_30_,X_INTRODUCED_17_,X_INTRODUCED_795_],876);
constraint int_lin_le(X_INTRODUCED_444_,[X_INTRODUCED_30_,X_INTRODUCED_17_,X_INTRODUCED_795_],-10);
constraint int_lin_le(X_INTRODUCED_336_,[X_INTRODUCED_790_,X_INTRODUCED_795_,X_INTRODUCED_197_],1);
constraint int_lin_le(X_INTRODUCED_34_,[X_INTRODUCED_197_,X_INTRODUCED_790_],0);
constraint int_lin_le(X_INTRODUCED_34_,[X_INTRODUCED_197_,X_INTRODUCED_795_],0);
constraint int_lin_le(X_INTRODUCED_314_,[X_INTRODUCED_19_,X_INTRODUCED_30_,X_INTRODUCED_806_],876);
constraint int_lin_le(X_INTRODUCED_318_,[X_INTRODUCED_19_,X_INTRODUCED_30_,X_INTRODUCED_806_],-1);
constraint int_lin_le(X_INTRODUCED_327_,[X_INTRODUCED_30_,X_INTRODUCED_19_,X_INTRODUCED_811_],876);
constraint int_lin_le(X_INTRODUCED_330_,[X_INTRODUCED_30_,X_INTRODUCED_19_,X_INTRODUCED_811_],-7);
constraint int_lin_le(X_INTRODUCED_336_,[X_INTRODUCED_806_,X_INTRODUCED_811_,X_INTRODUCED_202_],1);
constraint int_lin_le(X_INTRODUCED_34_,[X_INTRODUCED_202_,X_INTRODUCED_806_],0);
constraint int_lin_le(X_INTRODUCED_34_,[X_INTRODUCED_202_,X_INTRODUCED_811_],0);
constraint int_lin_le(X_INTRODUCED_314_,[X_INTRODUCED_20_,X_INTRODUCED_30_,X_INTRODUCED_822_],876);
constraint int_lin_le(X_INTRODUCED_318_,[X_INTRODUCED_20_,X_INTRODUCED_30_,X_INTRODUCED_822_],-1);
constraint int_lin_le(X_INTRODUCED_352_,[X_INTRODUCED_30_,X_INTRODUCED_20_,X_INTRODUCED_827_],876);
constraint int_lin_le(X_INTRODUCED_356_,[X_INTRODUCED_30_,X_INTRODUCED_20_,X_INTRODUCED_827_],-50);
constraint int_lin_le(X_INTRODUCED_336_,[X_INTRODUCED_822_,X_INTRODUCED_827_,X_INTRODUCED_207_],1);
constraint int_lin_le(X_INTRODUCED_34_,[X_INTRODUCED_207_,X_INTRODUCED_822_],0);
constraint int_lin_le(X_INTRODUCED_34_,[X_INTRODUCED_207_,X_INTRODUCED_827_],0);
constraint int_lin_le(X_INTRODUCED_314_,[X_INTRODUCED_22_,X_INTRODUCED_30_,X_INTRODUCED_838_],876);
constraint int_lin_le(X_INTRODUCED_318_,[X_INTRODUCED_22_,X_INTRODUCED_30_,X_INTRODUCED_838_],-1);
constraint int_lin_le(X_INTRODUCED_376_,[X_INTRODUCED_30_,X_INTRODUCED_22_,X_INTRODUCED_843_],876);
constraint int_lin_le(X_INTRODUCED_379_,[X_INTRODUCED_30_,X_INTRODUCED_22_,X_INTRODUCED_843_],-25);
constraint int_lin_le(X_INTRODUCED_336_,[X_INTRODUCED_838_,X_INTRODUCED_843_,X_INTRODUCED_212_],1);
constraint int_lin_le(X_INTRODUCED_34_,[X_INTRODUCED_212_,X_INTRODUCED_838_],0);
constraint int_lin_le(X_INTRODUCED_34_,[X_INTRODUCED_212_,X_INTRODUCED_843_],0);
constraint int_lin_le(X_INTRODUCED_314_,[X_INTRODUCED_28_,X_INTRODUCED_30_,X_INTRODUCED_854_],876);
constraint int_lin_le(X_INTRODUCED_318_,[X_INTRODUCED_28_,X_INTRODUCED_30_,X_INTRODUCED_854_],-1);
constraint int_lin_le(X_INTRODUCED_400_,[X_INTRODUCED_30_,X_INTRODUCED_28_,X_INTRODUCED_859_],876);
constraint int_lin_le(X_INTRODUCED_404_,[X_INTRODUCED_30_,X_INTRODUCED_28_,X_INTRODUCED_859_],-6);
constraint int_lin_le(X_INTRODUCED_336_,[X_INTRODUCED_854_,X_INTRODUCED_859_,X_INTRODUCED_217_],1);
constraint int_lin_le(X_INTRODUCED_34_,[X_INTRODUCED_217_,X_INTRODUCED_854_],0);
constraint int_lin_le(X_INTRODUCED_34_,[X_INTRODUCED_217_,X_INTRODUCED_859_],0);
constraint int_lin_le(X_INTRODUCED_314_,[X_INTRODUCED_23_,X_INTRODUCED_21_,X_INTRODUCED_870_],876);
constraint int_lin_le(X_INTRODUCED_318_,[X_INTRODUCED_23_,X_INTRODUCED_21_,X_INTRODUCED_870_],-1);
constraint int_lin_le(X_INTRODUCED_880_,[X_INTRODUCED_21_,X_INTRODUCED_23_,X_INTRODUCED_875_],876);
constraint int_lin_le(X_INTRODUCED_883_,[X_INTRODUCED_21_,X_INTRODUCED_23_,X_INTRODUCED_875_],-100);
constraint int_lin_le(X_INTRODUCED_336_,[X_INTRODUCED_870_,X_INTRODUCED_875_,X_INTRODUCED_227_],1);
constraint int_lin_le(X_INTRODUCED_34_,[X_INTRODUCED_227_,X_INTRODUCED_870_],0);
constraint int_lin_le(X_INTRODUCED_34_,[X_INTRODUCED_227_,X_INTRODUCED_875_],0);
constraint int_lin_le(X_INTRODUCED_314_,[X_INTRODUCED_25_,X_INTRODUCED_21_,X_INTRODUCED_891_],876);
constraint int_lin_le(X_INTRODUCED_318_,[X_INTRODUCED_25_,X_INTRODUCED_21_,X_INTRODUCED_891_],-1);
constraint int_lin_le(X_INTRODUCED_904_,[X_INTRODUCED_21_,X_INTRODUCED_25_,X_INTRODUCED_899_],876);
constraint int_lin_le(X_INTRODUCED_908_,[X_INTRODUCED_21_,X_INTRODUCED_25_,X_INTRODUCED_899_],-225);
constraint int_lin_le(X_INTRODUCED_336_,[X_INTRODUCED_891_,X_INTRODUCED_899_,X_INTRODUCED_232_],1);
constraint int_lin_le(X_INTRODUCED_34_,[X_INTRODUCED_232_,X_INTRODUCED_891_],0);
constraint int_lin_le(X_INTRODUCED_34_,[X_INTRODUCED_232_,X_INTRODUCED_899_],0);
constraint int_lin_le(X_INTRODUCED_314_,[X_INTRODUCED_21_,X_INTRODUCED_23_,X_INTRODUCED_914_],876);
constraint int_lin_le(X_INTRODUCED_318_,[X_INTRODUCED_21_,X_INTRODUCED_23_,X_INTRODUCED_914_],-1);
constraint int_lin_le(X_INTRODUCED_880_,[X_INTRODUCED_23_,X_INTRODUCED_21_,X_INTRODUCED_919_],876);
constraint int_lin_le(X_INTRODUCED_883_,[X_INTRODUCED_23_,X_INTRODUCED_21_,X_INTRODUCED_919_],-100);
constraint int_lin_le(X_INTRODUCED_336_,[X_INTRODUCED_914_,X_INTRODUCED_919_,X_INTRODUCED_240_],1);
constraint int_lin_le(X_INTRODUCED_34_,[X_INTRODUCED_240_,X_INTRODUCED_914_],0);
constraint int_lin_le(X_INTRODUCED_34_,[X_INTRODUCED_240_,X_INTRODUCED_919_],0);
constraint int_lin_le(X_INTRODUCED_314_,[X_INTRODUCED_25_,X_INTRODUCED_23_,X_INTRODUCED_932_],876);
constraint int_lin_le(X_INTRODUCED_318_,[X_INTRODUCED_25_,X_INTRODUCED_23_,X_INTRODUCED_932_],-1);
constraint int_lin_le(X_INTRODUCED_904_,[X_INTRODUCED_23_,X_INTRODUCED_25_,X_INTRODUCED_939_],876);
constraint int_lin_le(X_INTRODUCED_908_,[X_INTRODUCED_23_,X_INTRODUCED_25_,X_INTRODUCED_939_],-225);
constraint int_lin_le(X_INTRODUCED_336_,[X_INTRODUCED_932_,X_INTRODUCED_939_,X_INTRODUCED_246_],1);
constraint int_lin_le(X_INTRODUCED_34_,[X_INTRODUCED_246_,X_INTRODUCED_932_],0);
constraint int_lin_le(X_INTRODUCED_34_,[X_INTRODUCED_246_,X_INTRODUCED_939_],0);
constraint int_lin_le(X_INTRODUCED_314_,[X_INTRODUCED_21_,X_INTRODUCED_25_,X_INTRODUCED_950_],876);
constraint int_lin_le(X_INTRODUCED_318_,[X_INTRODUCED_21_,X_INTRODUCED_25_,X_INTRODUCED_950_],-1);
constraint int_lin_le(X_INTRODUCED_880_,[X_INTRODUCED_25_,X_INTRODUCED_21_,X_INTRODUCED_955_],876);
constraint int_lin_le(X_INTRODUCED_883_,[X_INTRODUCED_25_,X_INTRODUCED_21_,X_INTRODUCED_955_],-100);
constraint int_lin_le(X_INTRODUCED_336_,[X_INTRODUCED_950_,X_INTRODUCED_955_,X_INTRODUCED_253_],1);
constraint int_lin_le(X_INTRODUCED_34_,[X_INTRODUCED_253_,X_INTRODUCED_950_],0);
constraint int_lin_le(X_INTRODUCED_34_,[X_INTRODUCED_253_,X_INTRODUCED_955_],0);
constraint int_lin_le(X_INTRODUCED_314_,[X_INTRODUCED_23_,X_INTRODUCED_25_,X_INTRODUCED_966_],876);
constraint int_lin_le(X_INTRODUCED_318_,[X_INTRODUCED_23_,X_INTRODUCED_25_,X_INTRODUCED_966_],-1);
constraint int_lin_le(X_INTRODUCED_880_,[X_INTRODUCED_25_,X_INTRODUCED_23_,X_INTRODUCED_971_],876);
constraint int_lin_le(X_INTRODUCED_883_,[X_INTRODUCED_25_,X_INTRODUCED_23_,X_INTRODUCED_971_],-100);
constraint int_lin_le(X_INTRODUCED_336_,[X_INTRODUCED_966_,X_INTRODUCED_971_,X_INTRODUCED_258_],1);
constraint int_lin_le(X_INTRODUCED_34_,[X_INTRODUCED_258_,X_INTRODUCED_966_],0);
constraint int_lin_le(X_INTRODUCED_34_,[X_INTRODUCED_258_,X_INTRODUCED_971_],0);
solve :: int_search(X_INTRODUCED_264_,smallest,indomain_min,complete) minimize Objective;
